//Number of items      		
173
//Bin Capacity      
1000
//Known Best Solution  		
73
//Weight of Item
     699         2
     696         1
     694         1
     693         1
     692         1
     691         1
     690         1
     689         1
     688         1
     682         1
     681         1
     679         2
     673         2
     671         1
     664         1
     662         1
     661         1
     655         1
     652         1
     649         1
     646         1
     640         1
     638         1
     618         1
     617         1
     602         1
     590         1
     587         1
     586         2
     584         1
     582         1
     568         1
     567         1
     563         1
     560         1
     558         1
     553         1
     548         1
     539         2
     536         2
     532         2
     529         1
     526         2
     522         1
     521         1
     517         1
     516         1
     514         1
     513         1
     510         1
     507         1
     505         1
     502         1
     498         1
     495         1
     493         1
     491         1
     485         1
     482         1
     477         1
     475         1
     474         1
     465         1
     456         1
     454         1
     453         1
     450         1
     442         1
     441         1
     440         1
     439         1
     437         2
     434         1
     424         1
     422         1
     419         1
     415         1
     407         1
     404         1
     401         1
     399         1
     395         2
     393         1
     391         1
     386         1
     384         1
     382         1
     381         1
     368         1
     354         1
     353         1
     348         1
     344         1
     343         3
     336         2
     328         2
     324         2
     321         1
     319         2
     304         1
     302         1
     301         1
     300         1
     296         1
     295         1
     284         1
     281         1
     280         1
     279         1
     275         2
     271         1
     267         1
     260         1
     257         1
     253         1
     248         1
     245         1
     243         1
     239         1
     238         2
     237         1
     233         1
     226         1
     225         1
     222         2
     218         1
     217         1
     216         2
     212         1
     211         1
     206         1
     204         1
     201         1
     197         1
     189         1
     188         1
     187         1
     186         1
     181         1
     176         1
     173         1
     167         1
     165         1
     163         1
     158         1
     153         1
     146         2
     142         1
     135         1
     127         1
     126         1
     124         1
     119         1
     115         2
     114         1
     107         1
     105         1
     104         1
      96         2
      94         2
      79         1
      61         1
      55         1
      54         1
      44         2
      33         1
      31         1
      28         2
      18         1
      15         2
      12         1
      11         1
       9         1